sat
(
  (define-fun N () String
    "a")
  (define-fun G () String
    "")
  (define-fun J () String
    "b")
  (define-fun O () String
    "aaaabbbaa")
  (define-fun Q () String
    "")
  (define-fun M () String
    "")
  (define-fun L () String
    "")
  (define-fun H () String
    "")
  (define-fun K () String
    "")
)
